Diamond cubic carbon
1.0
   3.5670000000    0.0000000000    0.0000000000
   0.0000000000    3.5670000000    0.0000000000
   0.0000000000    0.0000000000    3.5670000000
   C
   8
Direct
   0.0000000000    0.0000000000    0.0000000000
   0.5000000000    0.5000000000    0.0000000000
   0.5000000000    0.0000000000    0.5000000000
   0.0000000000    0.5000000000    0.5000000000
   0.2500000000    0.2500000000    0.2500000000
   0.7500000000    0.7500000000    0.2500000000
   0.7500000000    0.2500000000    0.7500000000
   0.2500000000    0.7500000000    0.7500000000
